# Solution for model problem_
# Objective value = 6.2962453625991126e+04
x(0_0) 0
x(0_1) 0
x(0_2) 0
x(0_3) 0
x(0_4) 0
x(0_5) 0
x(0_6) 0
x(0_7) 0
x(0_8) 0
x(0_9) 1
x(1_10) 0
x(1_11) 0
x(1_12) 0
x(1_13) 0
x(1_14) 0
x(1_15) 1
x(1_16) 0
x(1_17) 0
x(1_18) 0
x(1_19) 0
x(1_20) 0
x(1_21) 0
x(1_22) 0
x(1_23) 0
x(1_24) 0
x(1_25) 0
x(1_26) 0
x(2_27) 0
x(2_28) 0
x(2_29) 0
x(2_30) 0
x(2_31) 0
x(2_32) 1
x(2_33) 0
x(2_34) 0
x(2_35) 0
x(2_36) 0
x(3_37) 0
x(3_38) 0
x(3_39) 0
x(3_40) 0
x(3_41) 0
x(3_42) 0
x(3_43) 0
x(3_44) 0
x(3_45) 0
x(3_46) 0
x(3_47) 0
x(3_48) 0
x(3_49) 1
x(4_50) 0
x(4_51) 0
x(4_52) 0
x(4_53) 1
x(4_54) 0
x(4_55) 0
x(4_56) 0
x(4_57) 0
x(4_58) 0
x(4_59) 0
x(5_60) 0
x(5_61) 0
x(5_62) 0
x(5_63) 0
x(5_64) 0
x(5_65) 0
x(5_66) 0
x(5_67) 0
x(5_68) 0
x(5_69) 0
x(5_70) 0
x(5_71) 1
x(5_72) 0
x(5_73) 0
x(6_74) 0
x(6_75) 0
x(6_76) 0
x(6_77) 0
x(6_78) 0
x(6_79) 1
x(6_80) 0
x(6_81) 0
x(6_82) 0
x(6_83) 0
x(6_84) 0
x(6_85) 0
x(6_86) 0
x(6_87) 0
x(6_88) 0
x(7_89) 1
x(7_90) 0
x(7_91) 0
x(7_92) 0
x(7_93) 0
x(7_94) 0
x(7_95) 0
x(7_96) 0
x(7_97) 0
x(7_98) 0
x(7_99) 0
x(7_100) 0
x(7_101) 0
x(7_102) 0
x(7_103) 0
x(7_104) 0
x(7_105) 0
x(8_106) 0
x(8_107) 0
x(8_108) 0
x(8_109) 0
x(8_110) 1
x(8_111) 0
x(8_112) 0
x(8_113) 0
x(8_114) 0
x(8_115) 0
x(8_116) 0
x(8_117) 0
x(8_118) 0
x(8_119) 0
x(8_120) 0
x(8_121) 0
x(8_122) 0
x(8_123) 0
x(8_124) 0
x(8_125) 0
x(9_126) 0
x(9_127) 0
x(9_128) 0
x(9_129) 0
x(9_130) 0
x(9_131) 0
x(9_132) 0
x(9_133) 0
x(9_134) 0
x(9_135) 0
x(9_136) 0
x(9_137) 1
x(9_138) 0
x(9_139) 0
x(9_140) 0
x(9_141) 0
x(9_142) 0
x(10_143) 1
x(10_144) 0
x(10_145) 0
x(10_146) 0
x(10_147) 0
x(10_148) 0
x(10_149) 0
x(10_150) 0
x(10_151) 0
x(10_152) 0
x(10_153) 0
x(10_154) 0
x(10_155) 0
x(10_156) 0
x(10_157) 0
x(10_158) 0
x(11_159) 0
x(11_160) 0
x(11_161) 0
x(11_162) 0
x(11_163) 0
x(11_164) 0
x(11_165) 0
x(11_166) 0
x(11_167) 0
x(11_168) 0
x(11_169) 0
x(11_170) 0
x(11_171) 1
x(12_172) 0
x(12_173) 0
x(12_174) 0
x(12_175) 0
x(12_176) 0
x(12_177) 0
x(12_178) 0
x(12_179) 0
x(12_180) 0
x(12_181) 0
x(12_182) 0
x(12_183) 1
x(12_184) 0
x(12_185) 0
x(12_186) 0
x(12_187) 0
x(12_188) 0
x(12_189) 0
x(13_190) 0
x(13_191) 0
x(13_192) 0
x(13_193) 0
x(13_194) 0
x(13_195) 0
x(13_196) 0
x(13_197) 1
x(13_198) 0
x(13_199) 0
x(13_200) 0
x(13_201) 0
x(13_202) 0
x(13_203) 0
x(14_204) 0
x(14_205) 0
x(14_206) 0
x(14_207) 0
x(14_208) 0
x(14_209) 0
x(14_210) 0
x(14_211) 1
x(14_212) 0
x(14_213) 0
x(14_214) 0
x(14_215) 0
x(14_216) 0
x(14_217) 0
x(15_218) 0
x(15_219) 0
x(15_220) 0
x(15_221) 0
x(15_222) 0
x(15_223) 0
x(15_224) 0
x(15_225) 0
x(15_226) 0
x(15_227) 1
x(15_228) 0
x(15_229) 0
x(16_230) 0
x(16_231) 0
x(16_232) 0
x(16_233) 0
x(16_234) 0
x(16_235) 0
x(16_236) 0
x(16_237) 0
x(16_238) 1
x(16_239) 0
x(16_240) 0
x(17_241) 0
x(17_242) 0
x(17_243) 0
x(17_244) 0
x(17_245) 0
x(17_246) 0
x(17_247) 0
x(17_248) 0
x(17_249) 0
x(17_250) 0
x(17_251) 0
x(17_252) 0
x(17_253) 0
x(17_254) 0
x(17_255) 0
x(17_256) 0
x(17_257) 0
x(17_258) 0
x(17_259) 0
x(17_260) 1
x(18_261) 0
x(18_262) 0
x(18_263) 0
x(18_264) 0
x(18_265) 0
x(18_266) 0
x(18_267) 0
x(18_268) 0
x(18_269) 0
x(18_270) 0
x(18_271) 1
x(18_272) 0
x(18_273) 0
x(18_274) 0
x(18_275) 0
x(18_276) 0
x(18_277) 0
x(18_278) 0
x(18_279) 0
x(19_280) 0
x(19_281) 0
x(19_282) 0
x(19_283) 1
x(19_284) 0
x(19_285) 0
x(19_286) 0
x(19_287) 0
x(19_288) 0
x(19_289) 0
x(19_290) 0
x(19_291) 0
x(19_292) 0
x(19_293) 0
x(19_294) 0
x(19_295) 0
x(20_296) 0
x(20_297) 0
x(20_298) 0
x(20_299) 0
x(20_300) 0
x(20_301) 0
x(20_302) 0
x(20_303) 0
x(20_304) 0
x(20_305) 1
x(20_306) 0
x(21_307) 0
x(21_308) 0
x(21_309) 1
x(21_310) 0
x(21_311) 0
x(21_312) 0
x(21_313) 0
x(21_314) 0
x(21_315) 0
x(21_316) 0
x(22_317) 0
x(22_318) 0
x(22_319) 0
x(22_320) 0
x(22_321) 0
x(22_322) 1
x(22_323) 0
x(22_324) 0
x(22_325) 0
x(22_326) 0
x(22_327) 0
x(22_328) 0
x(22_329) 0
x(23_330) 0
x(23_331) 0
x(23_332) 0
x(23_333) 0
x(23_334) 0
x(23_335) 0
x(23_336) 0
x(23_337) 1
x(23_338) 0
x(23_339) 0
x(23_340) 0
x(23_341) 0
x(23_342) 0
x(23_343) 0
x(23_344) 0
x(23_345) 0
x(24_346) 0
x(24_347) 0
x(24_348) 0
x(24_349) 0
x(24_350) 0
x(24_351) 0
x(24_352) 1
x(24_353) 0
x(24_354) 0
x(24_355) 0
x(24_356) 0
x(24_357) 0
x(24_358) 0
x(25_359) 0
x(25_360) 0
x(25_361) 0
x(25_362) 0
x(25_363) 0
x(25_364) 0
x(25_365) 0
x(25_366) 1
x(25_367) 0
x(25_368) 0
x(25_369) 0
x(26_370) 0
x(26_371) 0
x(26_372) 0
x(26_373) 0
x(26_374) 0
x(26_375) 0
x(26_376) 1
x(26_377) 0
x(26_378) 0
x(26_379) 0
x(27_380) 0
x(27_381) 0
x(27_382) 0
x(27_383) 0
x(27_384) 0
x(27_385) 0
x(27_386) 0
x(27_387) 0
x(27_388) 0
x(27_389) 1
x(27_390) 0
x(27_391) 0
x(27_392) 0
x(27_393) 0
x(28_394) 0
x(28_395) 0
x(28_396) 0
x(28_397) 0
x(28_398) 0
x(28_399) 0
x(28_400) 0
x(28_401) 0
x(28_402) 0
x(28_403) 0
x(28_404) 0
x(28_405) 0
x(28_406) 1
x(28_407) 0
x(28_408) 0
x(29_409) 0
x(29_410) 0
x(29_411) 0
x(29_412) 1
x(29_413) 0
x(29_414) 0
x(29_415) 0
x(29_416) 0
x(29_417) 0
x(29_418) 0
x(29_419) 0
x(30_420) 0
x(30_421) 0
x(30_422) 0
x(30_423) 0
x(30_424) 0
x(30_425) 0
x(30_426) 0
x(30_427) 0
x(30_428) 0
x(30_429) 0
x(30_430) 1
x(30_431) 0
x(30_432) 0
x(30_433) 0
x(30_434) 0
x(30_435) 0
x(30_436) 0
x_1_0 1.2039216066524386e+02
s_1_0 0
z_1_0 0
x_1_1 0
s_1_1 9.4810516806319356e-01
z_1_1 1
x_1_2 1.2095971549022943e+02
s_1_2 0
z_1_2 0
x_1_3 1.2002451669611037e+02
s_1_3 0
z_1_3 0
x_1_4 1.1952063437551260e+02
s_1_4 0
z_1_4 0
x_1_5 0
s_1_5 8.0527341514243744e-01
z_1_5 1
x_1_6 1.2029129012860358e+02
s_1_6 0
z_1_6 0
x_1_7 0
s_1_7 8.5343021294102073e-01
z_1_7 1
x_1_8 1.2002046849671751e+02
s_1_8 0
z_1_8 0
x_1_9 0
s_1_9 8.4141162078594789e-01
z_1_9 1
x_1_10 1.1939839778374881e+02
s_1_10 0
z_1_10 0
x_1_11 1.2043680507689714e+02
s_1_11 0
z_1_11 0
x_1_12 1.2048431899538264e+02
s_1_12 0
z_1_12 0
x_1_13 1.2066741715383250e+02
s_1_13 0
z_1_13 0
x_1_14 1.2119820963498205e+02
s_1_14 0
z_1_14 0
x_1_15 1.2004044604301453e+02
s_1_15 0
z_1_15 0
x_1_16 0
s_1_16 8.4941650438122451e-01
z_1_16 1
x_1_17 0
s_1_17 0.810869425535202
z_1_17 1
x_1_18 0
s_1_18 1.0013650007895194e+00
z_1_18 1
x_1_19 0
s_1_19 8.1808307656319812e-01
z_1_19 1
x_1_20 1.2049853814789094e+02
s_1_20 0
z_1_20 0
x_1_21 1.2067366487905383e+02
s_1_21 0
z_1_21 0
x_1_22 0
s_1_22 7.7228131319861859e-01
z_1_22 1
x_1_23 0
s_1_23 5.1166675676358864e-01
z_1_23 1
x_1_24 1.1996507333591580e+02
s_1_24 0
z_1_24 0
x_1_25 1.2136569442786276e+02
s_1_25 0
z_1_25 0
x_1_26 0
s_1_26 9.2940942943096161e-01
z_1_26 1
x_1_27 0
s_1_27 7.2043896233662963e-01
z_1_27 1
x_1_28 1.1937508908286691e+02
s_1_28 0
z_1_28 0
x_1_29 1.1960504262894392e+02
s_1_29 0
z_1_29 0
x_1_30 1.1726798648340628e+02
s_1_30 0
z_1_30 0
x_1_31 0
s_1_31 0.468484116718173
z_1_31 1
x_1_32 1.1702851092256606e+02
s_1_32 0
z_1_32 0
x_1_33 1.2070221239607781e+02
s_1_33 0
z_1_33 0
x_1_34 0
s_1_34 7.3256314010359347e-01
z_1_34 1
x_1_35 0
s_1_35 6.8972764350473881e-01
z_1_35 1
x_1_36 1.2072748949378729e+02
s_1_36 0
z_1_36 0
x_1_37 0
s_1_37 5.7259095006884309e-01
z_1_37 1
x_1_38 1.2060842075943947e+02
s_1_38 0
z_1_38 0
x_1_39 0
s_1_39 4.3454597535310313e-01
z_1_39 1
x_1_40 0
s_1_40 8.2515350915491581e-01
z_1_40 1
x_1_41 0
s_1_41 7.8863220894709229e-01
z_1_41 1
x_1_42 0
s_1_42 3.8963701797183603e-01
z_1_42 1
x_1_43 0
s_1_43 8.3400287188123912e-01
z_1_43 1
x_1_44 1.1971794509887695e+02
s_1_44 0
z_1_44 0
x_1_45 0
s_1_45 3.9656248354731360e-01
z_1_45 1
x_1_46 0
s_1_46 6.3291007099905983e-01
z_1_46 1
x_1_47 1.2148001334443688e+02
s_1_47 0
z_1_47 0
x_1_48 1.1974634158331901e+02
s_1_48 0
z_1_48 0
x_1_49 1.2064986932370812e+02
s_1_49 0
z_1_49 0
x_1_50 1.1971049596089870e+02
s_1_50 0
z_1_50 0
x_1_51 0
s_1_51 7.7317731245420873e-01
z_1_51 1
x_1_52 0
s_1_52 7.9909872903954238e-01
z_1_52 1
x_1_53 1.2060093135014176e+02
s_1_53 0
z_1_53 0
x_1_54 1.2102742822095752e+02
s_1_54 0
z_1_54 0
x_1_55 0
s_1_55 5.8833129401318729e-01
z_1_55 1
x_1_56 1.1918744409456849e+02
s_1_56 0
z_1_56 0
x_1_57 0
s_1_57 1.1889506396837533e+00
z_1_57 1
x_1_58 1.2093204275052994e+02
s_1_58 0
z_1_58 0
x_1_59 0
s_1_59 9.6516166289802641e-01
z_1_59 1
x_1_60 1.2013979086652398e+02
s_1_60 0
z_1_60 0
x_1_61 0
s_1_61 3.8649844820611179e-02
z_1_61 1
x_1_62 1.2106973519176245e+02
s_1_62 0
z_1_62 0
x_1_63 1.1949724966473877e+02
s_1_63 0
z_1_63 0
x_1_64 0
s_1_64 3.5589757864363492e-01
z_1_64 1
x_1_65 1.1999456141830888e+02
s_1_65 0
z_1_65 0
x_1_66 0
s_1_66 1.0439793528057635e+00
z_1_66 1
x_1_67 1.2012409664620645e+02
s_1_67 0
z_1_67 0
x_1_68 1.2045438449457288e+02
s_1_68 0
z_1_68 0
x_1_69 0
s_1_69 7.4413401918718591e-01
z_1_69 1
x_1_70 1.2039804978668690e+02
s_1_70 0
z_1_70 0
x_1_71 1.1977734147757292e+02
s_1_71 0
z_1_71 0
x_1_72 0
s_1_72 6.9806131848599762e-01
z_1_72 1
x_1_73 1.2101880445703864e+02
s_1_73 0
z_1_73 0
x_1_74 1.2048968659713864e+02
s_1_74 0
z_1_74 0
x_1_75 0
s_1_75 9.2945256456732750e-01
z_1_75 1
x_1_76 0
s_1_76 7.3718980886042118e-01
z_1_76 1
x_1_77 0
s_1_77 1.0717242888495093e+00
z_1_77 1
x_1_78 0
s_1_78 6.0738644664525054e-01
z_1_78 1
x_1_79 1.2001011961884797e+02
s_1_79 0
z_1_79 0
x_1_80 1.2084856102988124e+02
s_1_80 0
z_1_80 0
x_1_81 1.1880175645812415e+02
s_1_81 0
z_1_81 0
x_1_82 1.2101640116889030e+02
s_1_82 0
z_1_82 0
x_1_83 0
s_1_83 0.622415950987488
z_1_83 1
x_1_84 0
s_1_84 5.1218205527402461e-01
z_1_84 1
x_1_85 0
s_1_85 5.6523648207075894e-01
z_1_85 1
x_1_86 1.2135838487744331e+02
s_1_86 0
z_1_86 0
x_1_87 1.2095221165008843e+02
s_1_87 0
z_1_87 0
x_1_88 1.2131994658708572e+02
s_1_88 0
z_1_88 0
x_1_89 1.1904902748391032e+02
s_1_89 0
z_1_89 0
x_1_90 1.2092036117718089e+02
s_1_90 0
z_1_90 0
x_1_91 0
s_1_91 7.5378309463849291e-01
z_1_91 1
x_1_92 1.2053219992015511e+02
s_1_92 0
z_1_92 0
x_1_93 1.2088646403467283e+02
s_1_93 0
z_1_93 0
x_1_94 0
s_1_94 8.1228641665074974e-01
z_1_94 1
x_1_95 1.2140639242902398e+02
s_1_95 0
z_1_95 0
x_1_96 1.2052754038758576e+02
s_1_96 0
z_1_96 0
x_1_97 1.2123639168497175e+02
s_1_97 0
z_1_97 0
x_1_98 0
s_1_98 6.3120240235002711e-01
z_1_98 1
x_1_99 0
s_1_99 0.885425734333694
z_1_99 1
x_1_100 0
s_1_100 8.8087741882191040e-01
z_1_100 1
x_1_101 0
s_1_101 1.4400114177260548e+00
z_1_101 1
x_1_102 1.1953615455143154e+02
s_1_102 0
z_1_102 0
x_1_103 0
s_1_103 6.1860465444624424e-01
z_1_103 1
x_1_104 1.2040452246111818e+02
s_1_104 0
z_1_104 0
x_1_105 1.1950110933370888e+02
s_1_105 0
z_1_105 0
x_1_106 1.2012758167833090e+02
s_1_106 0
z_1_106 0
x_1_107 0
s_1_107 0.888255248311907
z_1_107 1
x_1_108 1.2088723565079272e+02
s_1_108 0
z_1_108 0
x_1_109 0
s_1_109 0.757897456176579
z_1_109 1
x_1_110 1.2102240962907672e+02
s_1_110 0
z_1_110 0
x_1_111 1.2021634778054431e+02
s_1_111 0
z_1_111 0
x_1_112 0
s_1_112 1.2887516445480287e+00
z_1_112 1
x_1_113 1.1965868075564504e+02
s_1_113 0
z_1_113 0
x_1_114 1.2004720067232847e+02
s_1_114 0
z_1_114 0
x_1_115 0
s_1_115 6.7707214620895684e-01
z_1_115 1
x_1_116 1.1976377464924008e+02
s_1_116 0
z_1_116 0
x_1_117 1.2047676782612689e+02
s_1_117 0
z_1_117 0
x_1_118 0
s_1_118 9.7266606288030744e-01
z_1_118 1
x_1_119 1.2058816840685904e+02
s_1_119 0
z_1_119 0
x_1_120 1.2103350969403982e+02
s_1_120 0
z_1_120 0
x_1_121 120.954559892416
s_1_121 0
z_1_121 0
x_1_122 0
s_1_122 6.8234829872380942e-01
z_1_122 1
x_1_123 0
s_1_123 7.9678207472898066e-01
z_1_123 1
x_1_124 1.1957880880637094e+02
s_1_124 0
z_1_124 0
x_1_125 1.1936752402130514e+02
s_1_125 0
z_1_125 0
x_1_126 1.1789011130481958e+02
s_1_126 0
z_1_126 0
x_1_127 1.2111428717733361e+02
s_1_127 0
z_1_127 0
x_1_128 1.2076471443846822e+02
s_1_128 0
z_1_128 0
x_1_129 1.1969179714098573e+02
s_1_129 0
z_1_129 0
x_1_130 1.2099753477005288e+02
s_1_130 0
z_1_130 0
x_1_131 1.2097221743315458e+02
s_1_131 0
z_1_131 0
x_1_132 1.2118219877593219e+02
s_1_132 0
z_1_132 0
x_1_133 1.2109413286671042e+02
s_1_133 0
z_1_133 0
x_1_134 0
s_1_134 7.0392335428914521e-01
z_1_134 1
x_1_135 1.2020968492026441e+02
s_1_135 0
z_1_135 0
x_1_136 0
s_1_136 9.3432341940933838e-01
z_1_136 1
x_1_137 0
s_1_137 8.9864415940246545e-01
z_1_137 1
x_1_138 1.2040071811864618e+02
s_1_138 0
z_1_138 0
x_1_139 1.1992583858966827e+02
s_1_139 0
z_1_139 0
x_1_140 1.2146934749744833e+02
s_1_140 0
z_1_140 0
x_1_141 1.1977290123142302e+02
s_1_141 0
z_1_141 0
x_1_142 1.1978311257087626e+02
s_1_142 0
z_1_142 0
x_1_143 1.1729002820351161e+02
s_1_143 0
z_1_143 0
x_1_144 4.9999612465378596e+04
s_1_144 5.0000387534621404e+04
z_1_144 0.500003875346214
x_1_145 1.2140304386522621e+02
s_1_145 0
z_1_145 0
x_1_146 0
s_1_146 6.8941895128227770e-01
z_1_146 1
x_1_147 0
s_1_147 1.0306359744863585e+00
z_1_147 1
x_1_148 0
s_1_148 7.3447253927588463e-01
z_1_148 1
x_1_149 0
s_1_149 4.4056439329870045e-01
z_1_149 1
x_1_150 1.2089705715142190e+02
s_1_150 0
z_1_150 0
x_1_151 0
s_1_151 2.8479241603054106e-01
z_1_151 1
x_1_152 1.1987209746986628e+02
s_1_152 0
z_1_152 0
x_1_153 1.2049939404521137e+02
s_1_153 0
z_1_153 0
x_1_154 0
s_1_154 1.2314536739140749e+00
z_1_154 1
x_1_155 0
s_1_155 5.3139942022971809e-01
z_1_155 1
x_1_156 0
s_1_156 8.3806287558400072e-01
z_1_156 1
x_1_157 0
s_1_157 9.9877814669162035e-01
z_1_157 1
x_1_158 1.2025015176273882e+02
s_1_158 0
z_1_158 0
x_1_159 1.2109775696881115e+02
s_1_159 0
z_1_159 0
x_2_0 6.2306763625991123e+04
